problems/csplib-prob001/CarSequencing-models/noch/O2/lingeling/model-random25-solution000001.eprime-solution
language ESSENCE' 1.0

letting car_Function1D be
        [5, 14, 17, 14, 5, 17, 14, 4, 5, 17, 21, 5, 14, 5, 17, 18, 21, 5, 24, 15, 17, 15, 5, 24, 15, 5, 17, 17, 10, 5,
         9, 5, 8, 17, 15, 5, 12, 5, 17, 15, 16, 17, 15, 5, 17, 5, 25, 24, 5, 14, 5, 5, 14, 5, 16, 15, 5, 21, 5, 2, 17,
         5, 15, 16, 14, 5, 14, 6, 20, 5, 5, 8, 5, 5, 17, 16, 15, 7, 15, 18, 17, 14, 4, 5, 14, 22, 8, 5, 5, 16, 13, 17,
         5, 5, 12, 22, 15, 20, 9, 5, 14, 20, 14, 24, 16, 14, 17, 5, 5, 24, 12, 17, 17, 15, 24, 5, 16, 5, 15, 7, 8, 5, 5,
         16, 11, 17, 25, 5, 14, 5, 15, 17, 5, 6, 17, 16, 5, 22, 12, 5, 19, 5, 18, 14, 5, 7, 10, 5, 14, 5, 5, 7, 16, 5,
         14, 16, 17, 6, 5, 8, 5, 17, 16, 14, 5, 21, 5, 9, 3, 5, 14, 18, 14, 5, 20, 5, 5, 17, 5, 14, 5, 14, 23, 15, 5,
         17, 5, 14, 5, 6, 16, 15, 5, 16, 14, 5, 22, 14, 1, 14; int(1..200)]
